38
0
35
34
120
51
41
46
50
25
62
52
38
50
97
64
67
59
50
51
45
57
50
48
44
64
95
29
38
53
57
56
36
54
90
38
79
0
0
52
68
31
64
54
24
46
74
68
64
74
133
100
26
59
46
78
59
57
59
52
51
49
68
53
42
30
52
99
30
0
50
29
43
38
38
52
0
69
41
42
38
49
40
68
37
44
35
65
80
25
65
51
62
28
69
67
0
64
69
54
